(set-info :smt-lib-version 2.6)
(set-logic QF_S)
(set-info :source |
Generated by: Murphy Berzish, Mitja Kulczynski, Federico Mora, Florin Manea, Joel Day, Dirk Nowotka, Vijay Ganesh, Zhengyang Lu
Generated on: 2020-10-01
Description: Translated from a collection of real-world regex queries, AutomataArk, collected by Loris D’Antoni and Fang Wang: https://github.com/lorisdanto/automatark
Application: Evaluate solvers on real-world regex queries
Target solver: Z3str3RE, CVC4, OSTRICH, Z3seq, Z3str3, Z3-Trau
Publications: Berzish, M., Kulczynski, M., Mora, F., Manea, F., Day, J. D., Nowotka, D., & Ganesh, V. (2021, July). An SMT solver for regular expressions and linear arithmetic over string length. In CAV 2021.
|)
(set-info :license "https://creativecommons.org/licenses/by/4.0/")
(set-info :category "industrial")
(set-info :status unsat)

(declare-const X String)
(assert (not (str.in_re X (re.++ (str.to_re "/Accept: text/*, application/*\u{d}\u{a}User-Agent: ") (re.+ (re.comp (str.to_re "\u{a}"))) (str.to_re "\u{d}\u{a}Host:") (re.+ (re.comp (str.to_re "\u{a}"))) (str.to_re "\u{d}\u{a}") (re.union (str.to_re "Pragma") (str.to_re "Cache-Control")) (str.to_re ": no-cache\u{d}\u{a}") (re.opt (str.to_re "Connection: Keep-Alive\u{d}\u{a}")) (re.opt (str.to_re "\u{d}\u{a}")) (str.to_re "/\u{a}")))))
(assert (str.in_re X (re.++ (re.opt (str.to_re "-")) ((_ re.loop 4 4) (re.range "0" "9")) (str.to_re "-") (re.union (re.++ (re.union (re.++ (str.to_re "0") (re.union (str.to_re "1") (str.to_re "3") (str.to_re "5") (str.to_re "7") (str.to_re "8"))) (re.++ (str.to_re "1") (re.union (str.to_re "0") (str.to_re "2")))) (str.to_re "-") (re.union (re.++ (str.to_re "0") (re.range "1" "9")) (re.++ (re.union (str.to_re "1") (str.to_re "2")) (re.range "0" "9")) (re.++ (str.to_re "3") (re.range "0" "1")))) (re.++ (re.union (re.++ (str.to_re "0") (re.union (str.to_re "4") (str.to_re "6") (str.to_re "9"))) (str.to_re "11")) (str.to_re "-") (re.union (re.++ (str.to_re "0") (re.range "1" "9")) (re.++ (re.union (str.to_re "1") (str.to_re "2")) (re.range "0" "9")) (str.to_re "30"))) (re.++ (str.to_re "02-") (re.union (re.++ (str.to_re "0") (re.range "1" "9")) (re.++ (re.union (str.to_re "1") (str.to_re "2")) (re.range "0" "9"))))) (str.to_re "T") (re.union (re.++ (re.range "0" "1") (re.range "0" "9")) (re.++ (str.to_re "2") (re.range "0" "4"))) (str.to_re ":") (re.union (re.++ (str.to_re "0") (re.range "0" "9")) (re.++ (re.range "1" "5") (re.range "0" "9"))) (str.to_re ":") (re.union (re.++ (str.to_re "0") (re.range "0" "9")) (re.++ (re.range "1" "5") (re.range "0" "9"))) (re.opt (re.++ (str.to_re ".") (re.union (re.range "0" "9") (str.to_re "9")))) (re.opt (re.union (re.++ (re.union (str.to_re "+") (str.to_re "-")) (re.union (re.++ (re.range "0" "1") (re.range "0" "9")) (re.++ (str.to_re "2") (re.range "0" "4"))) (str.to_re ":") (re.union (re.++ (str.to_re "0") (re.range "0" "9")) (re.++ (re.range "1" "5") (re.range "0" "9")))) (str.to_re "Z"))) (str.to_re "\u{a}"))))
(assert (str.in_re X (re.++ (str.to_re "NAME") (re.opt (re.union (str.to_re " ") (str.to_re "\u{9}") (str.to_re "\u{a}") (str.to_re "\u{c}") (str.to_re "\u{d}"))) (re.opt (str.to_re "<")) (re.* (re.union (re.range "0" "9") (re.range "A" "Z") (re.range "a" "z") (str.to_re "_"))) (re.* (re.union (str.to_re " ") (str.to_re "\u{9}") (str.to_re "\u{a}") (str.to_re "\u{c}") (str.to_re "\u{d}"))) (re.* (re.range "0" "9")) (re.opt (str.to_re ">")) (str.to_re "\u{a}"))))
(assert (str.in_re X (re.++ (str.to_re "User-Agent:") (re.* re.allchar) (str.to_re "Host:") (re.+ (re.union (str.to_re " ") (str.to_re "\u{9}") (str.to_re "\u{a}") (str.to_re "\u{c}") (str.to_re "\u{d}"))) (str.to_re "www.wordiq.com\u{1b}") (re.+ (re.union (str.to_re " ") (str.to_re "\u{9}") (str.to_re "\u{a}") (str.to_re "\u{c}") (str.to_re "\u{d}"))) (str.to_re "Subject:AlexaOnline%21%21%21\u{a}"))))
(assert (str.in_re X (str.to_re "Host:Host:From:\u{3}\u{0}\u{1c}\u{0}\u{0}\u{0}\u{0}\u{0}\u{1}Furaxbnymomspyo/zowy\u{a}")))
(check-sat)

(exit)
